n_res = 4;
rcap = [12, 18, 37, 49];
rtype = [1, 1, 2, 2];
n_tasks = 16;
modes = [ {1}, {2}, {3}, {4}, {5}, {6}, {7}, {8}, {9}, {10}, {11}, {12}, {13}, {14}, {15}, {16} ];
succ = [ {4, 6, 14}, {10, 13}, {4, 5, 6}, {8}, {7, 8, 14}, {10, 11, 16}, {9, 11, 13}, {11, 13}, {10, 12}, {15}, {15}, {15, 16}, {16}, {}, {}, {} ];
n_opt = 16;
dur = [2, 2, 5, 4, 1, 10, 2, 1, 10, 10, 1, 1, 4, 7, 2, 9];
rreq = [|  3,  9,  2,  3,  5,  3,  6,  7,  2,  4,  9,  3,  9,  1,  6,  3
        |  3,  3,  2,  7,  2,  6,  5,  6,  7,  7,  9, 10,  4,  6,  9,  4
        |  1,  4, 10,  0,  0,  9,  0,  1,  0,  0,  0,  0,  0,  9,  3,  0
        |  0,  0,  0, 10, 10,  0,  4,  0,  1,  3,  8,  6,  2,  0,  0,  5 |];
